%nprocshared=8
%mem=40GB
#p freq b3lyp/genecp scrf=(smd,solvent=water) geom=connectivity gfprint
integral=grid=ultrafine scf=conver=9

Optimisation of I16_S1_M1_W_Opt complex, with B3LYP functional, 6-31g(d,p)
basis set for ligands, LanL2DZ for Zn

-1 1
 C                  2.70034600   -1.45026400   -0.97901800
 C                  2.89150000   -0.74273700    0.36119200
 C                  2.59454900   -1.57473000    1.64033100
 C                  1.86151800   -0.32260000    2.16209200
 C                  2.12774800    1.64752400    0.57822600
 C                  1.02333900    2.58465300    1.08098200
 C                 -0.36901000    2.43929000    0.42672300
 C                 -0.24241500    2.52704900   -1.11167500
 C                 -2.47380500    1.15688100    0.66128900
 C                 -3.14193400   -0.03596600    1.35191000
 C                 -2.69138900   -1.44844300    0.92673600
 C                 -2.72025600   -1.59224700   -0.60586500
 O                  1.53738400   -1.39059000   -1.52374700
 O                  3.67519100   -2.08244500   -1.43797100
 O                 -0.18344000    1.41811100   -1.75891700
 O                 -0.16027600    3.66372200   -1.62249200
 O                 -1.61134200   -1.48952800   -1.24871000
 O                 -3.83745400   -1.76622500   -1.13407200
 O                 -1.38722600   -1.78793300    1.41569100
 N                  1.82805100    0.21966600    0.76702400
 N                 -1.00579000    1.17315500    0.83455300
 H                  3.89023100   -0.29119200    0.39525700
 H                  1.91880600   -2.41081000    1.44392300
 H                  3.45828900   -1.92017000    2.20818700
 H                  0.87903500   -0.45529000    2.62368700
 H                  2.49300000    0.29046700    2.81734300
 H                  3.06368000    1.90437600    1.09939400
 H                  2.30381700    1.80464000   -0.49188400
 H                  1.36423400    3.61059900    0.90990800
 H                 -0.97974300    3.29449600    0.74800400
 H                 -2.69097800    1.14637200   -0.41241200
 H                 -2.91714500    2.08013600    1.06375400
 H                 -3.00830900    0.04437400    2.43949000
 H                 -4.21821600    0.03768300    1.16396100
 H                 -3.42305900   -2.16300700    1.32473200
 Zn                -0.00988300   -0.34551600   -0.51123100
 H                  0.90674200    2.47047200    2.16638500
 H                 -1.32577800   -1.48351300    2.33275700
 H                 -0.79777800    1.00475100    1.81761000

 1 2 1.0 13 2.0 14 2.0
 2 3 1.0 20 1.0 22 1.0
 3 4 1.0 23 1.0 24 1.0
 4 20 1.0 25 1.0 26 1.0
 5 6 1.0 20 1.0 27 1.0 28 1.0
 6 7 1.0 29 1.0 37 1.0
 7 8 1.0 21 1.0 30 1.0
 8 15 2.0 16 2.0
 9 10 1.0 21 1.0 31 1.0 32 1.0
 10 11 1.0 33 1.0 34 1.0
 11 12 1.0 19 1.0 35 1.0
 12 17 2.0 18 2.0
 13
 14
 15
 16
 17
 18
 19 38 1.0
 20
 21 39 1.0
 22
 23
 24
 25
 26
 27
 28
 29
 30
 31
 32
 33
 34
 35
 36
 37
 38
 39

C H N O 0
6-31G(d,p)
****
Zn 0
LANL2DZ
****

Zn 0
LANL2

